
List of user-set options:

                                    Name   Value                used
                   hessian_approximation = limited-memory        yes
                           linear_solver = ma57                  yes
                  ma57_automatic_scaling = yes                   yes
                                max_iter = 150                   yes
                             mu_strategy = adaptive              yes
                             output_file = SPARTAN-CombinedIPOPTinfo.txt  yes
                             print_level = 5                     yes
                      print_user_options = yes                   yes
                                     tol = 1e-007                yes
This is Ipopt version 3.11.0, running with linear solver ma57.

Number of nonzeros in equality constraint Jacobian...:   502260
Number of nonzeros in inequality constraint Jacobian.:    41222
Number of nonzeros in Lagrangian Hessian.............:        0

Total number of variables............................:    34533
                     variables with only lower bounds:        0
                variables with lower and upper bounds:    34533
                     variables with only upper bounds:        0
Total number of equality constraints.................:    27273
Total number of inequality constraints...............:     2960
        inequality constraints with only lower bounds:        0
   inequality constraints with lower and upper bounds:     2842
        inequality constraints with only upper bounds:      118

iter    objective    inf_pr   inf_du lg(mu)  ||d||  lg(rg) alpha_du alpha_pr  ls
   0 -2.1823334e+002 2.16e-001 1.00e+002   0.0 0.00e+000    -  0.00e+000 0.00e+000   0
   1 -2.1771359e+002 1.66e-001 7.70e+001  -1.1 2.04e+000    -  4.98e-001 2.29e-001f  1
   2 -2.1727029e+002 1.49e-001 6.90e+001  -1.6 1.84e+000    -  6.03e-001 1.02e-001f  1
   3 -2.1506919e+002 1.14e-001 1.19e+002  -1.5 2.13e+000    -  4.02e-001 2.34e-001f  1
   4 -2.0748881e+002 2.18e-002 2.28e+002  -1.9 1.69e+000    -  7.90e-001 9.38e-001f  1
   5 -2.0698331e+002 1.61e-002 1.78e+002  -2.0 1.96e+000    -  6.63e-001 2.62e-001f  1
   6 -2.0527388e+002 4.42e-003 3.23e+001  -2.4 1.88e+000    -  5.99e-001 8.30e-001f  1
   7 -1.7184004e+002 5.02e-002 3.32e+002  -1.8 1.40e+001    -  4.66e-001 4.94e-001f  1
   8 -1.5886429e+002 8.36e-002 1.89e+002  -1.8 2.96e+001    -  5.82e-001 7.44e-001f  1
   9 -1.5062865e+002 4.17e-002 7.06e+001  -1.8 5.38e+001    -  8.13e-001 6.93e-001h  1
iter    objective    inf_pr   inf_du lg(mu)  ||d||  lg(rg) alpha_du alpha_pr  ls
  10 -1.4198782e+002 9.25e-002 1.36e+002  -1.8 3.72e+001    -  1.00e+000 9.87e-001h  1
  11 -1.4581454e+002 4.12e-002 2.06e+002  -1.8 4.60e+001    -  1.00e+000 1.00e+000h  1
  12 -1.4523314e+002 7.05e-003 4.41e+001  -1.8 1.61e+001    -  1.00e+000 1.00e+000h  1
  13 -1.4459671e+002 3.31e-002 2.59e+001  -1.8 1.02e+001    -  1.00e+000 1.00e+000h  1
  14 -1.4409319e+002 3.37e-002 2.32e+001  -1.8 1.55e+001    -  1.00e+000 1.00e+000h  1
  15 -1.4391865e+002 2.39e-002 2.52e+001  -1.8 1.35e+001    -  1.00e+000 1.00e+000h  1
  16 -1.4311528e+002 2.14e-002 2.10e+001  -1.8 2.89e+001    -  1.00e+000 1.00e+000h  1
  17 -1.4383178e+002 1.92e-002 1.80e+001  -1.8 2.24e+001    -  1.00e+000 1.00e+000h  1
  18 -1.4458171e+002 8.85e-003 3.32e+001  -1.8 9.68e+000    -  1.00e+000 1.00e+000h  1
  19 -1.4498629e+002 7.59e-002 3.57e+001  -1.8 7.96e+001    -  7.61e-001 1.00e+000h  1
iter    objective    inf_pr   inf_du lg(mu)  ||d||  lg(rg) alpha_du alpha_pr  ls
  20 -1.4505173e+002 4.63e-002 2.96e+001  -1.8 4.76e+001    -  1.00e+000 8.90e-001h  1
  21 -1.1094108e+002 3.34e-003 4.74e+002  -0.2 1.97e+001    -  1.00e+000 1.00e+000H  1
  22 -1.1086023e+002 2.72e-003 1.18e+003  -0.2 1.11e+001    -  1.00e+000 1.00e+000f  1
  23 -1.1112577e+002 7.01e-002 1.75e+003  -0.2 1.64e+001    -  1.00e+000 1.00e+000f  1
  24 -1.1156395e+002 1.92e-002 9.51e+002  -0.2 7.01e+000    -  1.00e+000 1.00e+000h  1
  25 -1.1120703e+002 1.35e-003 1.51e+003  -0.2 2.15e+001    -  1.00e+000 1.00e+000H  1
  26 -1.1066832e+002 2.57e-003 3.29e+003  -0.2 1.02e+001    -  1.00e+000 1.00e+000F  1
  27 -1.1069075e+002 4.50e-003 7.05e+002  -0.2 1.49e+001    -  1.00e+000 1.00e+000F  1
  28 -1.1051801e+002 7.52e-004 7.89e+002  -1.0 7.70e+000    -  1.00e+000 1.00e+000H  1
  29 -1.1288068e+002 1.67e-002 6.91e+001  -1.3 6.74e+000    -  1.00e+000 1.00e+000h  1
iter    objective    inf_pr   inf_du lg(mu)  ||d||  lg(rg) alpha_du alpha_pr  ls
  30 -1.1610400e+002 4.17e-003 2.85e+002  -1.4 4.40e+000    -  1.00e+000 1.00e+000h  1
  31 -1.1934929e+002 1.25e-003 4.08e+001  -1.9 1.72e+000    -  1.00e+000 1.00e+000h  1
  32 -1.2440172e+002 5.72e-003 1.10e+002  -2.0 1.82e+001    -  1.00e+000 1.44e-001f  1
  33 -1.2831674e+002 2.98e-002 1.38e+002  -1.6 2.11e+001    -  1.00e+000 1.00e+000f  1
  34 -1.3998764e+002 2.47e-002 1.23e+002  -1.7 4.33e+000    -  1.00e+000 1.00e+000h  1
  35 -1.3634194e+002 8.60e-004 2.29e+001  -1.7 1.37e+001    -  1.00e+000 1.00e+000H  1
  36 -1.4053123e+002 2.57e-003 8.25e+001  -1.9 6.72e+000    -  1.00e+000 1.00e+000h  1
  37 -1.5818399e+002 8.66e-003 3.20e+002  -2.0 1.74e+001    -  1.00e+000 1.00e+000H  1
  38 -1.6011192e+002 6.47e-002 2.03e+002  -2.0 1.21e+001    -  1.00e+000 1.00e+000h  1
  39 -1.5375077e+002 2.01e-002 3.26e+001  -2.0 9.93e+000    -  1.00e+000 1.00e+000h  1
iter    objective    inf_pr   inf_du lg(mu)  ||d||  lg(rg) alpha_du alpha_pr  ls
  40 -1.4992847e+002 2.03e-002 1.32e+002  -2.0 1.08e+001    -  1.00e+000 1.00e+000h  1
  41 -1.5435336e+002 3.92e-002 2.02e+001  -2.0 1.35e+001    -  1.00e+000 1.00e+000h  1
  42 -1.5700267e+002 1.58e-002 3.69e+001  -2.0 8.27e+000    -  1.00e+000 1.00e+000h  1
  43 -1.5614304e+002 1.00e-002 1.13e+001  -2.0 4.19e+000    -  1.00e+000 1.00e+000h  1
  44 -1.5560458e+002 2.38e-003 2.14e+001  -2.0 1.12e+001    -  1.00e+000 1.00e+000H  1
  45 -1.6059516e+002 1.06e-002 8.95e+001  -2.3 8.03e+000    -  1.00e+000 1.00e+000h  1
  46 -1.6854019e+002 3.06e-002 1.60e+002  -2.4 1.07e+001    -  1.00e+000 1.00e+000h  1
  47 -1.7077038e+002 2.47e-002 1.60e+001  -2.4 9.41e+000    -  1.00e+000 1.00e+000h  1
  48 -1.6845184e+002 5.08e-003 5.04e+001  -2.4 6.63e+000    -  1.00e+000 1.00e+000h  1
  49 -1.6884508e+002 4.45e-002 1.15e+002  -2.4 9.15e+000    -  1.00e+000 1.00e+000h  1
iter    objective    inf_pr   inf_du lg(mu)  ||d||  lg(rg) alpha_du alpha_pr  ls
  50 -1.7135873e+002 1.24e-003 2.74e+001  -2.4 9.41e+000    -  1.00e+000 1.00e+000H  1
  51 -1.7300180e+002 2.31e-002 5.86e+001  -2.4 1.19e+001    -  1.00e+000 1.00e+000h  1
  52 -1.7146145e+002 4.22e-003 1.96e+001  -2.4 7.01e+000    -  1.00e+000 1.00e+000h  1
  53 -1.7048753e+002 1.87e-002 8.29e+001  -2.4 5.14e+000    -  1.00e+000 1.00e+000h  1
  54 -1.7665442e+002 1.18e-003 3.97e+001  -2.7 6.67e+000    -  9.19e-001 1.00e+000H  1
  55 -1.7983342e+002 4.70e-002 7.99e+001  -3.0 2.54e+001    -  1.00e+000 1.00e+000h  1
  56 -1.8954200e+002 3.94e+001 3.62e+001  -3.1 3.87e+001    -  8.80e-001 8.41e-001h  1
  57 -1.9780107e+002 8.54e-002 7.22e+001  -3.1 4.79e+001    -  5.31e-001 9.57e-001h  1
  58 -1.9974915e+002 4.79e-002 9.01e+000  -3.1 1.86e+001    -  1.00e+000 1.00e+000h  1
  59 -2.0097924e+002 5.97e-002 5.75e+001  -3.1 5.98e+001    -  6.15e-001 1.00e+000h  1
iter    objective    inf_pr   inf_du lg(mu)  ||d||  lg(rg) alpha_du alpha_pr  ls
  60 -1.9950538e+002 7.78e-002 3.63e+001  -3.1 4.08e+001    -  7.30e-001 1.00e+000h  1
  61 -1.9962853e+002 6.34e-002 6.05e+000  -3.1 4.50e+001    -  1.00e+000 5.00e-001h  2
  62 -1.9891825e+002 2.40e-002 1.18e+001  -3.1 1.78e+001    -  1.00e+000 1.00e+000h  1
  63 -2.0126965e+002 4.90e-003 1.84e+001  -3.1 1.94e+001    -  1.00e+000 1.00e+000h  1
  64 -2.0077501e+002 6.64e-002 6.56e+000  -3.1 1.69e+001    -  1.00e+000 1.00e+000h  1
  65 -2.0022738e+002 6.07e-002 3.24e+001  -3.1 1.76e+001    -  1.00e+000 1.00e+000h  1
  66 -1.9939842e+002 1.41e-002 4.69e+000  -3.1 2.35e+001    -  1.00e+000 1.00e+000H  1
  67 -2.0045229e+002 3.19e-002 2.93e+000  -3.1 1.60e+001    -  1.00e+000 1.00e+000h  1
  68 -2.0016504e+002 2.21e-002 4.85e+000  -3.1 7.82e+000    -  1.00e+000 1.00e+000h  1
  69 -2.0407159e+002 1.64e-002 6.98e+001  -3.4 1.26e+001    -  1.00e+000 1.00e+000h  1
iter    objective    inf_pr   inf_du lg(mu)  ||d||  lg(rg) alpha_du alpha_pr  ls
  70 -2.0663553e+002 3.60e-002 3.78e+000  -3.4 1.05e+001    -  1.00e+000 1.00e+000h  1
  71 -2.0932875e+002 9.47e-002 2.36e+001  -3.4 1.03e+001    -  8.76e-001 1.00e+000h  1
  72 -2.0624699e+002 2.98e-003 2.90e+001  -3.4 4.91e+001    -  4.76e-001 1.00e+000H  1
  73 -2.0811111e+002 4.44e-002 4.66e+000  -3.4 1.09e+001    -  1.00e+000 1.00e+000h  1
  74 -2.0673178e+002 1.18e-002 7.65e+000  -3.4 1.68e+001    -  1.00e+000 1.00e+000H  1
  75 -2.0760869e+002 2.91e-002 4.42e+000  -3.4 9.05e+000    -  1.00e+000 1.00e+000h  1
  76 -2.0807958e+002 3.64e-002 1.58e+001  -3.4 1.44e+001    -  1.00e+000 1.00e+000h  1
  77 -2.0869815e+002 5.60e-002 4.28e+000  -3.4 9.84e+000    -  1.00e+000 1.00e+000h  1
  78 -2.0831694e+002 4.20e-002 6.92e+000  -3.4 1.12e+001    -  1.00e+000 2.50e-001h  3
  79 -2.0867525e+002 3.55e-002 1.44e+001  -3.4 2.64e+001    -  1.00e+000 1.00e+000h  1
iter    objective    inf_pr   inf_du lg(mu)  ||d||  lg(rg) alpha_du alpha_pr  ls
  80 -2.0856389e+002 4.43e-002 2.39e+001  -3.4 2.38e+001    -  1.00e+000 5.00e-001h  2
  81 -2.0854595e+002 4.04e-002 2.10e+001  -3.4 6.04e+001    -  4.28e-001 8.80e-002h  4
  82 -2.0844701e+002 3.90e-002 7.69e+000  -3.4 5.86e+001    -  5.55e-001 1.24e-001h  3
  83 -2.0834440e+002 3.35e-002 2.05e+000  -3.4 2.51e+001    -  1.00e+000 1.40e-001h  3
  84 -2.0825814e+002 3.13e-002 1.73e+000  -3.4 6.06e+001    -  1.00e+000 6.25e-002h  5
  85 -2.0824107e+002 3.08e-002 2.78e+000  -3.4 3.16e+001    -  1.00e+000 1.56e-002h  7
  86 -2.0824005e+002 3.08e-002 2.81e+000  -3.4 2.97e+001    -  1.00e+000 9.77e-004h 11
  87 -2.0721616e+002 2.25e-003 1.19e+001  -3.4 1.80e+001    -  9.95e-001 1.00e+000H  1
  88 -2.0770164e+002 2.97e-003 4.25e+000  -3.7 1.47e+000    -  1.00e+000 1.00e+000h  1
  89 -2.0907292e+002 4.69e-001 1.03e+001  -3.7 5.17e+000    -  1.00e+000 9.48e-001h  1
iter    objective    inf_pr   inf_du lg(mu)  ||d||  lg(rg) alpha_du alpha_pr  ls
  90 -2.0968049e+002 1.06e-002 2.26e+001  -3.8 5.09e+000    -  1.00e+000 1.00e+000h  1
  91 -2.1155157e+002 3.34e-002 3.77e+001  -3.9 3.05e+001    -  9.14e-001 4.94e-001h  1
  92 -2.1245461e+002 2.25e-002 2.73e+000  -3.9 1.79e+001    -  9.02e-001 5.31e-001h  1
  93 -2.1279529e+002 7.75e-003 3.43e+000  -3.9 7.18e+000    -  5.58e-001 8.25e-001h  1
  94 -2.1368125e+002 2.31e-002 2.98e+001  -3.9 2.60e+001    -  1.00e+000 1.00e+000h  1
  95 -2.1352868e+002 4.92e-002 2.10e+000  -3.9 3.70e+001    -  1.00e+000 5.90e-001h  1
  96 -2.1333084e+002 5.80e-002 6.76e+000  -3.9 2.10e+001    -  1.00e+000 1.00e+000h  1
  97 -2.1371567e+002 2.03e-002 3.72e+000  -3.9 3.18e+001    -  1.00e+000 1.00e+000h  1
  98 -2.1349472e+002 2.65e-002 4.85e+000  -3.9 2.29e+001    -  1.00e+000 5.00e-001h  2
  99 -2.1382453e+002 6.16e-002 2.23e+001  -3.9 2.60e+001    -  1.00e+000 1.00e+000h  1
iter    objective    inf_pr   inf_du lg(mu)  ||d||  lg(rg) alpha_du alpha_pr  ls
 100 -2.1372474e+002 3.08e-002 2.73e+000  -3.9 1.74e+001    -  1.00e+000 5.00e-001h  2
 101 -2.1392369e+002 2.31e-002 1.91e+001  -3.9 3.55e+001    -  9.35e-001 2.50e-001h  3
 102 -2.1366325e+002 6.04e-002 2.57e+000  -3.9 2.76e+001    -  1.00e+000 1.00e+000h  1
 103 -2.1345123e+002 3.86e-003 1.02e+001  -3.9 1.87e+001    -  1.00e+000 1.00e+000H  1
 104 -2.1205006e+002 1.55e-002 8.11e+001  -3.7 1.13e+002    -  5.73e-001 3.30e-001h  2
 105 -2.1328332e+002 4.15e-003 3.31e+001  -3.9 2.92e+001    -  1.00e+000 1.00e+000H  1
 106 -2.1437174e+002 1.11e-001 3.38e+000  -3.9 3.71e+001    -  5.25e-001 1.00e+000h  1
 107 -2.1295187e+002 6.11e-002 4.44e+001  -3.9 7.28e+001    -  3.90e-001 1.00e+000H  1
 108 -2.1325775e+002 6.29e-002 2.22e+001  -3.9 9.46e+001    -  2.25e-001 2.07e-001h  2
 109 -2.1366738e+002 1.24e-001 4.45e+001  -3.9 4.74e+001    -  1.00e+000 1.00e+000h  1
iter    objective    inf_pr   inf_du lg(mu)  ||d||  lg(rg) alpha_du alpha_pr  ls
 110 -2.1365588e+002 1.11e-001 3.82e+001  -3.9 5.38e+001    -  9.12e-001 1.01e-001h  4
 111 -2.1191975e+002 8.74e-003 1.08e+002  -3.9 4.02e+001    -  1.00e+000 9.21e-001H  1
 112 -2.1275100e+002 4.57e-002 1.75e+001  -3.9 3.29e+001    -  2.84e-002 8.20e-001H  1
 113 -2.1308061e+002 3.32e-002 2.54e+001  -3.9 6.64e+000    -  5.18e-001 1.00e+000h  1
 114 -2.1304067e+002 2.10e-002 4.80e+001  -3.9 1.94e+001    -  7.60e-001 3.68e-001H  1
 115 -2.1332540e+002 3.39e-002 1.08e+001  -3.9 8.25e+000    -  6.93e-001 1.00e+000h  1
 116 -2.1335799e+002 4.25e-003 1.91e+001  -3.9 8.73e+000    -  1.00e+000 8.69e-001H  1
 117 -2.1348393e+002 2.31e-002 1.60e+001  -3.9 7.61e+000    -  1.00e+000 1.00e+000h  1
 118 -2.1318132e+002 2.69e-002 2.36e+001  -3.9 1.04e+001    -  1.00e+000 1.00e+000h  1
 119 -2.1328735e+002 3.90e-003 4.60e+000  -3.9 5.48e+000    -  1.00e+000 1.00e+000h  1
iter    objective    inf_pr   inf_du lg(mu)  ||d||  lg(rg) alpha_du alpha_pr  ls
 120 -2.1339082e+002 1.95e-003 7.08e+000  -3.9 8.06e+000    -  1.00e+000 5.00e-001h  2
 121 -2.1340212e+002 7.40e-003 4.07e+000  -3.9 3.61e+000    -  4.68e-001 1.00e+000h  1
 122 -2.1333637e+002 1.76e-003 7.73e+000  -3.9 5.13e+000    -  1.00e+000 1.00e+000h  1
 123 -2.1354116e+002 3.32e-002 2.10e+001  -3.9 8.26e+000    -  1.00e+000 1.00e+000h  1
 124 -2.1353726e+002 4.81e-002 2.31e+000  -3.9 1.42e+001    -  5.39e-001 1.00e+000h  1
 125 -2.1361141e+002 3.09e-002 3.47e+000  -3.9 1.33e+001    -  1.00e+000 1.00e+000h  1
 126 -2.1352543e+002 1.54e-002 4.61e+000  -3.9 1.13e+001    -  1.00e+000 5.00e-001h  2
 127 -2.1345674e+002 4.52e-002 2.35e+001  -3.9 1.59e+001    -  6.55e-001 1.00e+000h  1
 128 -2.1333968e+002 3.52e-002 1.29e+001  -3.9 1.77e+001    -  1.00e+000 1.00e+000H  1
 129 -2.1342154e+002 2.06e-002 5.30e+000  -3.9 1.49e+001    -  1.00e+000 4.16e-001h  2
iter    objective    inf_pr   inf_du lg(mu)  ||d||  lg(rg) alpha_du alpha_pr  ls
 130 -2.1389355e+002 2.25e-002 1.05e+001  -3.9 1.67e+001    -  5.91e-001 8.83e-001h  1
 131 -2.1374350e+002 1.69e-002 7.01e+000  -3.9 1.01e+001    -  1.00e+000 2.50e-001h  3
 132 -2.1368244e+002 3.46e-002 3.27e+000  -3.9 1.13e+001    -  3.53e-001 4.09e-001h  2
 133 -2.1384127e+002 6.30e-002 3.57e+000  -3.9 2.73e+001    -  3.76e-001 8.15e-001h  1
 134 -2.1379021e+002 5.64e-002 1.75e+000  -3.9 1.61e+001    -  3.67e-001 1.05e-001h  4
 135 -2.1472734e+002 1.44e-001 2.05e+001  -3.9 5.90e+001    -  3.77e-001 1.00e+000h  1
 136 -2.1395769e+002 5.26e-002 2.01e+001  -3.9 3.77e+001    -  1.00e+000 1.00e+000h  1
 137 -2.1402001e+002 2.63e-002 7.49e+000  -3.9 4.67e+001    -  1.00e+000 5.00e-001h  2
 138 -2.1385012e+002 1.97e-002 4.30e+000  -3.9 2.91e+001    -  1.00e+000 2.50e-001h  3
 139 -2.1373666e+002 3.87e-002 4.78e+000  -3.9 3.08e+001    -  1.00e+000 5.00e-001h  2
iter    objective    inf_pr   inf_du lg(mu)  ||d||  lg(rg) alpha_du alpha_pr  ls
 140 -2.1370163e+002 3.03e-002 6.19e+000  -3.9 2.07e+001    -  1.00e+000 2.17e-001h  3
 141 -2.1354374e+002 5.61e-002 2.28e+001  -3.9 1.18e+001    -  1.00e+000 1.00e+000h  1
 142 -2.1357697e+002 4.27e-002 1.19e+001  -3.9 3.57e+001    -  1.00e+000 2.38e-001h  2
 143 -2.1356299e+002 4.01e-002 1.04e+001  -3.9 1.18e+001    -  4.69e-001 6.25e-002h  5
 144 -2.1357979e+002 3.00e-002 5.24e+000  -3.9 1.86e+001    -  8.02e-001 2.50e-001h  3
 145 -2.1362952e+002 2.25e-002 8.42e+000  -3.9 1.77e+001    -  4.98e-001 2.50e-001h  3
 146 -2.1402033e+002 3.68e-002 2.44e+001  -3.9 2.69e+001    -  6.53e-001 5.00e-001h  2
 147 -2.1384736e+002 2.76e-002 1.87e+001  -3.9 3.22e+001    -  1.00e+000 2.50e-001h  3
 148 -2.1382430e+002 2.67e-002 1.77e+001  -3.9 4.10e+001    -  1.00e+000 3.12e-002h  6
 149 -2.1381997e+002 2.66e-002 1.77e+001  -3.9 1.07e+001    -  5.65e-001 4.74e-003h  8
iter    objective    inf_pr   inf_du lg(mu)  ||d||  lg(rg) alpha_du alpha_pr  ls
 150 -2.1381744e+002 2.65e-002 1.76e+001  -3.9 1.05e+001    -  1.00e+000 2.69e-003h  9

Number of Iterations....: 150

                                   (scaled)                 (unscaled)
Objective...............: -1.7446880773784706e+001  -2.1381743510083018e+002
Dual infeasibility......:  1.7634866314950489e+001   2.1612126159963361e+002
Constraint violation....:  2.6541838485515043e-002   2.6541838485515043e-002
Complementarity.........:  5.3245220721319505e-004   6.5253822007636988e-003
Overall NLP error.......:  1.7634866314950489e+001   2.1612126159963361e+002


Number of objective function evaluations             = 325
Number of objective gradient evaluations             = 151
Number of equality constraint evaluations            = 325
Number of inequality constraint evaluations          = 325
Number of equality constraint Jacobian evaluations   = 151
Number of inequality constraint Jacobian evaluations = 151
Number of Lagrangian Hessian evaluations             = 0
Total CPU secs in IPOPT (w/o function evaluations)   =     40.496
Total CPU secs in NLP function evaluations           =    399.138

EXIT: Maximum Number of Iterations Exceeded.
